
Gurobi 9.1.2 (win64, Java) logging started Fri Nov  5 12:05:53 2021

Academic license - for non-commercial use only - expires 2022-10-30
Gurobi Optimizer version 9.1.2 build v9.1.2rc0 (win64)
Thread count: 6 physical cores, 12 logical processors, using up to 12 threads
Optimize a model with 50 rows, 400 columns and 800 nonzeros
Model fingerprint: 0x94fec2f5
Variable types: 0 continuous, 400 integer (400 binary)
Coefficient statistics:
  Matrix range     [1e+00, 1e+03]
  Objective range  [7e+01, 1e+03]
  Bounds range     [1e+00, 1e+00]
  RHS range        [1e+00, 1e+03]
Found heuristic solution: objective 13607.000000
Presolve removed 2 rows and 58 columns
Presolve time: 0.00s
Presolved: 48 rows, 342 columns, 684 nonzeros
Variable types: 0 continuous, 342 integer (342 binary)
Presolved: 48 rows, 342 columns, 684 nonzeros


Root relaxation: objective 1.755155e+04, 86 iterations, 0.00 seconds

    Nodes    |    Current Node    |     Objective Bounds      |     Work
 Expl Unexpl |  Obj  Depth IntInf | Incumbent    BestBd   Gap | It/Node Time

     0     0 17551.5471    0   15 13607.0000 17551.5471  29.0%     -    0s
H    0     0                    16503.000000 17551.5471  6.35%     -    0s
H    0     0                    16534.000000 17551.5471  6.15%     -    0s
H    0     0                    16575.000000 17551.5471  5.89%     -    0s
H    0     0                    16883.000000 17551.5471  3.96%     -    0s
H    0     0                    17078.000000 17551.5471  2.77%     -    0s
     0     0 17505.1538    0   17 17078.0000 17505.1538  2.50%     -    0s
     0     0 17505.1538    0   18 17078.0000 17505.1538  2.50%     -    0s
H    0     0                    17190.000000 17505.1538  1.83%     -    0s
     0     0 17505.1538    0   31 17190.0000 17505.1538  1.83%     -    0s
     0     0 17505.1538    0   14 17190.0000 17505.1538  1.83%     -    0s
     0     0 17505.1538    0   10 17190.0000 17505.1538  1.83%     -    0s
     0     0 17505.1538    0   18 17190.0000 17505.1538  1.83%     -    0s
     0     0 17505.1538    0   20 17190.0000 17505.1538  1.83%     -    0s
     0     0 17505.1538    0   17 17190.0000 17505.1538  1.83%     -    0s
     0     0 17505.1538    0   12 17190.0000 17505.1538  1.83%     -    0s
     0     2 17505.1538    0   12 17190.0000 17505.1538  1.83%     -    0s
H  244   381                    17195.000000 17505.1538  1.80%  10.9    0s
H 1786  1330                    17201.000000 17465.0000  1.53%   7.7    0s
H 1802  1273                    17229.000000 17465.0000  1.37%   7.6    0s
H17812 11205                    17240.000000 17465.0000  1.31%  12.5    3s
H29955  9058                    17438.000000 17465.0000  0.15%  14.7    4s
 31097 10165 17465.0000   61   15 17438.0000 17465.0000  0.15%  15.1    5s
H36393 11565                    17465.000000 17465.0000  0.00%  16.9    6s

Cutting planes:
  Gomory: 7
  Cover: 6
  MIR: 5
  RLT: 2

Explored 36413 nodes (615375 simplex iterations) in 6.44 seconds
Thread count was 12 (of 12 available processors)

Solution count 10: 17465 17438 17240 ... 16809

Optimal solution found (tolerance 1.00e-04)
Best objective 1.746500000000e+04, best bound 1.746500000000e+04, gap 0.0000%
